24
B12N12 fulborene CORRECTED (replaces 12-atom placeholder); 24-atom truncated octahedron cage (Th symmetry), B-N = 1.44 Angstrom. charge=0 spin=0
B      0.000000     1.018234     2.036468
B      0.000000     1.018234    -2.036468
B      0.000000    -1.018234     2.036468
B      0.000000    -1.018234    -2.036468
N      0.000000     2.036468     1.018234
N      0.000000    -2.036468     1.018234
N      0.000000     2.036468    -1.018234
N      0.000000    -2.036468    -1.018234
N      1.018234     0.000000     2.036468
N      1.018234     0.000000    -2.036468
N     -1.018234     0.000000     2.036468
N     -1.018234     0.000000    -2.036468
B      2.036468     0.000000     1.018234
B     -2.036468     0.000000     1.018234
B      2.036468     0.000000    -1.018234
B     -2.036468     0.000000    -1.018234
B      1.018234     2.036468     0.000000
B      1.018234    -2.036468     0.000000
B     -1.018234     2.036468     0.000000
B     -1.018234    -2.036468     0.000000
N      2.036468     1.018234     0.000000
N     -2.036468     1.018234     0.000000
N      2.036468    -1.018234     0.000000
N     -2.036468    -1.018234     0.000000
